100 92958

 95 561
950 277
464 271
970 14
246 298
733 464
635 527
187 234
774 575
925 708
785 27
373 471
572 93
406 617
408 309
125 52
337 319
341 969
563 181
178 569
651 120
952 820
839 875
170 43
39 647
69 885
236 938
560 260
381 197
57 645
277 971
850 255
99 732
916 336
527 553
325 502
461 990
179 900
844 255
574 514
119 707
469 242
549 149
646 710
455 299
26 757
490 850
8 620
969 453
987 393
516 212
533 668
927 538
149 594
488 595
25 131
999 329
655 612
757 256
931 479
945 561
555 913
425 63
293 311
185 407
554 802
431 105
604 617
317 837
398 15
324 687
565 259
596 723
546 412
76 259
865 614
920 260
916 856
709 671
486 45
798 955
88 813
747 763
232 331
7 165
804 193
550 521
976 401
52 374
655 65
942 387
919 495
396 794
221 693
428 415
752 794
143 791
861 30
363 266
382 328
